1 17
1 18
2 8
2 9
2 15
2 19
2 20
2 23
2 24
2 16
2 17
2 18
3 4
3 5
3 6
3 7
3 13
3 21
3 22
4 5
4 6
4 7
4 12
4 13
4 14
4 21
4 22
4 10
4 26
4 25
5 6
5 7
5 12
5 13
5 14
5 21
5 22
5 26
5 25
6 7
6 12
6 14
6 21
6 22
6 25
6 26
7 12
7 13
7 11
7 14
